c Created with the Wolfram Language : www.wolfram.com
c 
p edge 80 653
e 1 4
e 3 4
e 1 5
e 3 6
e 5 6
e 2 7
e 1 8
e 7 8
e 7 9
e 2 10
e 7 10
e 4 11
e 1 13
e 6 13
e 8 13
e 9 13
e 12 13
e 4 14
e 6 15
e 7 15
e 3 16
e 5 16
e 7 16
e 13 16
e 15 16
e 10 17
e 14 17
e 1 18
e 7 18
e 17 18
e 1 19
e 3 19
e 4 19
e 7 19
e 8 19
e 11 19
e 12 19
e 5 20
e 7 20
e 13 21
e 14 21
e 5 22
e 7 22
e 10 22
e 18 22
e 20 22
e 2 23
e 5 23
e 13 23
e 16 23
e 22 23
e 2 24
e 4 24
e 7 24
e 12 24
e 14 24
e 2 25
e 3 25
e 7 25
e 8 25
e 13 25
e 22 25
e 24 25
e 11 26
e 14 26
e 15 26
e 18 26
e 20 26
e 21 26
e 22 26
e 23 26
e 9 27
e 11 27
e 17 27
e 20 27
e 22 27
e 23 27
e 26 27
e 12 28
e 15 28
e 19 28
e 26 28
e 1 29
e 5 29
e 9 29
e 12 29
e 13 29
e 15 29
e 17 29
e 19 29
e 24 29
e 26 29
e 5 30
e 7 30
e 8 30
e 15 30
e 21 30
e 7 31
e 9 31
e 11 31
e 14 31
e 15 31
e 22 31
e 25 31
e 14 32
e 16 32
e 18 32
e 23 32
e 3 33
e 12 33
e 19 33
e 1 34
e 4 34
e 20 34
e 28 34
e 4 35
e 5 35
e 7 35
e 10 35
e 27 35
e 31 35
e 33 35
e 34 35
e 2 36
e 3 36
e 5 36
e 6 36
e 9 36
e 23 36
e 33 36
e 8 37
e 18 37
e 19 37
e 36 37
e 2 38
e 7 38
e 8 38
e 11 38
e 19 38
e 22 38
e 24 38
e 25 38
e 2 39
e 13 39
e 15 39
e 18 39
e 20 39
e 27 39
e 32 39
e 1 40
e 2 40
e 4 40
e 6 40
e 7 40
e 12 40
e 15 40
e 25 40
e 27 40
e 29 40
e 36 40
e 38 40
e 15 41
e 16 41
e 19 41
e 20 41
e 27 41
e 32 41
e 33 41
e 4 42
e 6 42
e 9 42
e 13 42
e 23 42
e 32 42
e 35 42
e 6 43
e 7 43
e 8 43
e 13 43
e 21 43
e 23 43
e 29 43
e 32 43
e 36 43
e 37 43
e 40 43
e 2 44
e 5 44
e 9 44
e 10 44
e 18 44
e 19 44
e 23 44
e 28 44
e 31 44
e 38 44
e 39 44
e 43 44
e 7 45
e 14 45
e 18 45
e 29 45
e 37 45
e 40 45
e 41 45
e 42 45
e 1 46
e 4 46
e 6 46
e 7 46
e 9 46
e 10 46
e 15 46
e 19 46
e 22 46
e 23 46
e 24 46
e 25 46
e 2 47
e 5 47
e 13 47
e 17 47
e 24 47
e 28 47
e 32 47
e 39 47
e 40 47
e 41 47
e 43 47
e 1 48
e 3 48
e 5 48
e 6 48
e 9 48
e 10 48
e 11 48
e 12 48
e 15 48
e 17 48
e 19 48
e 35 48
e 40 48
e 42 48
e 43 48
e 1 49
e 4 49
e 5 49
e 11 49
e 19 49
e 36 49
e 38 49
e 40 49
e 41 49
e 44 49
e 46 49
e 48 49
e 2 50
e 6 50
e 7 50
e 9 50
e 25 50
e 27 50
e 35 50
e 36 50
e 39 50
e 43 50
e 49 50
e 1 51
e 2 51
e 3 51
e 4 51
e 5 51
e 18 51
e 25 51
e 31 51
e 41 51
e 48 51
e 6 52
e 14 52
e 17 52
e 19 52
e 20 52
e 29 52
e 31 52
e 37 52
e 42 52
e 44 52
e 47 52
e 50 52
e 4 53
e 5 53
e 11 53
e 17 53
e 23 53
e 26 53
e 34 53
e 3 54
e 4 54
e 6 54
e 7 54
e 38 54
e 44 54
e 48 54
e 49 54
e 51 54
e 52 54
e 53 54
e 3 55
e 10 55
e 11 55
e 23 55
e 25 55
e 40 55
e 46 55
e 49 55
e 50 55
e 1 56
e 3 56
e 8 56
e 13 56
e 21 56
e 27 56
e 46 56
e 47 56
e 54 56
e 3 57
e 4 57
e 6 57
e 13 57
e 24 57
e 29 57
e 34 57
e 35 57
e 40 57
e 47 57
e 3 58
e 5 58
e 7 58
e 13 58
e 25 58
e 30 58
e 31 58
e 35 58
e 38 58
e 40 58
e 45 58
e 46 58
e 52 58
e 5 59
e 19 59
e 27 59
e 29 59
e 42 59
e 43 59
e 47 59
e 49 59
e 5 60
e 9 60
e 10 60
e 11 60
e 17 60
e 20 60
e 23 60
e 28 60
e 32 60
e 34 60
e 35 60
e 36 60
e 40 60
e 41 60
e 49 60
e 1 61
e 6 61
e 9 61
e 22 61
e 30 61
e 31 61
e 32 61
e 35 61
e 40 61
e 49 61
e 54 61
e 1 62
e 3 62
e 5 62
e 7 62
e 8 62
e 10 62
e 13 62
e 16 62
e 20 62
e 35 62
e 40 62
e 41 62
e 45 62
e 59 62
e 60 62
e 4 63
e 8 63
e 9 63
e 10 63
e 12 63
e 23 63
e 26 63
e 33 63
e 41 63
e 44 63
e 46 63
e 48 63
e 52 63
e 59 63
e 5 64
e 28 64
e 29 64
e 32 64
e 39 64
e 43 64
e 44 64
e 60 64
e 63 64
e 10 65
e 12 65
e 13 65
e 15 65
e 24 65
e 27 65
e 33 65
e 44 65
e 45 65
e 46 65
e 53 65
e 58 65
e 63 65
e 64 65
e 1 66
e 4 66
e 10 66
e 12 66
e 19 66
e 20 66
e 33 66
e 40 66
e 42 66
e 51 66
e 54 66
e 62 66
e 4 67
e 6 67
e 14 67
e 19 67
e 20 67
e 23 67
e 25 67
e 27 67
e 29 67
e 32 67
e 35 67
e 41 67
e 51 67
e 58 67
e 59 67
e 64 67
e 3 68
e 5 68
e 16 68
e 18 68
e 29 68
e 30 68
e 34 68
e 38 68
e 44 68
e 46 68
e 50 68
e 52 68
e 53 68
e 54 68
e 64 68
e 67 68
e 4 69
e 5 69
e 6 69
e 7 69
e 31 69
e 32 69
e 39 69
e 48 69
e 60 69
e 62 69
e 20 70
e 22 70
e 27 70
e 28 70
e 29 70
e 31 70
e 35 70
e 39 70
e 41 70
e 58 70
e 62 70
e 13 71
e 16 71
e 19 71
e 21 71
e 22 71
e 32 71
e 34 71
e 35 71
e 36 71
e 49 71
e 50 71
e 51 71
e 55 71
e 56 71
e 59 71
e 60 71
e 1 72
e 3 72
e 6 72
e 9 72
e 14 72
e 23 72
e 28 72
e 31 72
e 39 72
e 48 72
e 49 72
e 66 72
e 20 73
e 33 73
e 37 73
e 44 73
e 45 73
e 47 73
e 51 73
e 57 73
e 59 73
e 63 73
e 64 73
e 65 73
e 67 73
e 6 74
e 10 74
e 29 74
e 30 74
e 36 74
e 38 74
e 39 74
e 44 74
e 54 74
e 62 74
e 2 75
e 11 75
e 17 75
e 19 75
e 21 75
e 23 75
e 24 75
e 26 75
e 32 75
e 35 75
e 37 75
e 40 75
e 50 75
e 51 75
e 64 75
e 65 75
e 72 75
e 73 75
e 5 76
e 7 76
e 8 76
e 13 76
e 19 76
e 20 76
e 29 76
e 41 76
e 47 76
e 49 76
e 52 76
e 53 76
e 57 76
e 58 76
e 61 76
e 62 76
e 73 76
e 7 77
e 10 77
e 11 77
e 13 77
e 14 77
e 16 77
e 18 77
e 25 77
e 29 77
e 38 77
e 48 77
e 54 77
e 58 77
e 59 77
e 71 77
e 74 77
e 12 78
e 15 78
e 24 78
e 32 78
e 35 78
e 36 78
e 40 78
e 41 78
e 47 78
e 52 78
e 56 78
e 57 78
e 58 78
e 59 78
e 60 78
e 67 78
e 70 78
e 74 78
e 1 79
e 9 79
e 11 79
e 15 79
e 17 79
e 20 79
e 23 79
e 29 79
e 31 79
e 35 79
e 39 79
e 40 79
e 43 79
e 44 79
e 49 79
e 58 79
e 60 79
e 72 79
e 74 79
e 77 79
e 10 80
e 11 80
e 12 80
e 13 80
e 25 80
e 31 80
e 37 80
e 49 80
e 51 80
e 52 80
e 58 80
e 59 80
e 78 80
e 79 80
